
Gurobi 9.5.2 (win64) logging started Tue Mar 28 01:47:53 2023

Set parameter LogFile to value "2023-03-27_20hr-25min-09sec/Nodes40_Arcs65_LocNodes30/Formulation-1Instance-2.log"
Set parameter TimeLimit to value 600
Set parameter IntFeasTol to value 1e-09
Set parameter DualReductions to value 0
Set parameter NonConvex to value 2
Gurobi Optimizer version 9.5.2 build v9.5.2rc0 (win64)
Thread count: 4 physical cores, 8 logical processors, using up to 8 threads
Optimize a model with 176 rows, 310 columns and 670 nonzeros
Model fingerprint: 0x2f1b0cce
Model has 30 quadratic objective terms
Model has 105 SOS constraints
Variable types: 280 continuous, 30 integer (30 binary)
Coefficient statistics:
  Matrix range     [2e-02, 2e+02]
  Objective range  [3e+00, 2e+02]
  QObjective range [2e+00, 2e+00]
  Bounds range     [1e+00, 1e+00]
  RHS range        [4e-06, 3e+03]
Presolve time: 0.00s
Presolved: 237 rows, 342 columns, 825 nonzeros
Presolved model has 105 SOS constraint(s)
Presolved model has 30 bilinear constraint(s)
Variable types: 312 continuous, 30 integer (30 binary)

Root relaxation: unbounded, 149 iterations, 0.00 seconds (0.00 work units)

    Nodes    |    Current Node    |     Objective Bounds      |     Work
 Expl Unexpl |  Obj  Depth IntInf | Incumbent    BestBd   Gap | It/Node Time

     0     0  postponed    0               -          -      -     -    0s
     0     0  postponed    0               -          -      -     -    0s
Exploring 100 nodes in MinRel heuristic
No solution found by MinRel heuristic
     0     2  postponed    0               -          -      -     -    0s
Exploring 10000 nodes in MinRel heuristic
H 1219   711                    -13997.14416          -      -  35.7    2s
Feasible solution found by MinRel heuristic at node 3206
  7476  1790  postponed   52      -13997.144          -      -  26.3    5s
 18483  2892  postponed   70      -13997.144          -      -  23.1   10s
 30202  3395 infeasible   78      -13997.144          -      -  21.0   15s
 43202  3810 infeasible   74      -13997.144          -      -  20.0   20s
 56343  4077 infeasible   72      -13997.144          -      -  19.1   25s
 70073  4726  postponed   76      -13997.144          -      -  18.7   30s
 84515  5381  postponed   66      -13997.144          -      -  18.4   35s
 96447  5848  postponed   75      -13997.144          -      -  18.1   40s
 108192  6205  postponed   65      -13997.144          -      -  18.0   45s
 119911  6522  postponed   75      -13997.144          -      -  18.0   50s
 131518  6646 infeasible   78      -13997.144          -      -  18.2   55s
 143779  6737 infeasible   74      -13997.144          -      -  18.2   60s
 156048  6664 infeasible   77      -13997.144          -      -  18.2   65s
 167257  6773 infeasible   72      -13997.144          -      -  18.1   70s
 179841  6802  postponed   70      -13997.144          -      -  18.2   75s
 191570  6766  postponed   74      -13997.144          -      -  18.2   80s
 203758  6810  postponed   76      -13997.144          -      -  18.2   85s
 215578  6876 infeasible   77      -13997.144          -      -  18.3   90s
 227726  6746  postponed   74      -13997.144          -      -  18.4   95s
 242500  6589 infeasible   78      -13997.144          -      -  18.5  100s
 253598  6518  postponed   80      -13997.144          -      -  18.5  105s
 265231  6507 infeasible   78      -13997.144          -      -  18.5  110s
 275407  6670 infeasible   78      -13997.144          -      -  18.6  115s
 287217  6662  postponed   78      -13997.144          -      -  18.7  120s
 297963  6631 infeasible   79      -13997.144          -      -  18.7  125s
 308781  6542 infeasible   78      -13997.144          -      -  18.8  130s
 320765  6452 infeasible   79      -13997.144          -      -  18.9  135s
 332584  6433 infeasible   81      -13997.144          -      -  18.9  140s
 343916  6458  postponed   73      -13997.144          -      -  18.8  145s
 354494  6467 infeasible   81      -13997.144          -      -  18.9  150s
 366717  6374 infeasible   76      -13997.144          -      -  18.8  155s
 377641  6379 infeasible   78      -13997.144          -      -  18.8  160s
 388597  6380  postponed   78      -13997.144          -      -  18.8  165s
 400933  6420  postponed   64      -13997.144          -      -  18.7  170s
 411445  6300 infeasible   78      -13997.144          -      -  18.7  175s
 423285  6249  postponed   73      -13997.144          -      -  18.7  180s
 434286  6269  postponed   76      -13997.144          -      -  18.7  185s
 445106  6210  postponed   78      -13997.144          -      -  18.7  190s
 456475  6294 infeasible   76      -13997.144          -      -  18.7  195s
 471645  6331  postponed   77      -13997.144          -      -  18.6  200s
 485243  6351  postponed   73      -13997.144          -      -  18.5  205s
 497675  6438  postponed   79      -13997.144          -      -  18.4  210s
 508735  6487  postponed   73      -13997.144          -      -  18.5  215s
 520372  6430  postponed   77      -13997.144          -      -  18.5  220s
 532577  6347  postponed   77      -13997.144          -      -  18.5  225s
 543552  6253 infeasible   78      -13997.144          -      -  18.5  230s
 555709  6201  postponed   75      -13997.144          -      -  18.6  235s
 570560  6259  postponed   74      -13997.144          -      -  18.5  240s
 582536  6504 infeasible   78      -13997.144          -      -  18.5  245s
 594692  6551  postponed   77      -13997.144          -      -  18.5  250s
 607928  6535 infeasible   78      -13997.144          -      -  18.5  255s
 619505  6624  postponed   72      -13997.144          -      -  18.5  260s
 631184  6649 infeasible   76      -13997.144          -      -  18.5  265s
 643425  6595  postponed   77      -13997.144          -      -  18.5  270s
 655533  6589  postponed   72      -13997.144          -      -  18.5  275s
 666170  6560  postponed   72      -13997.144          -      -  18.6  280s
 677119  6444  postponed   76      -13997.144          -      -  18.6  285s
 689303  6517 infeasible   78      -13997.144          -      -  18.6  290s
 701007  6442 infeasible   76      -13997.144          -      -  18.7  295s
 711955  6299  postponed   78      -13997.144          -      -  18.7  300s
 724272  6291  postponed   75      -13997.144          -      -  18.7  305s
 737747  6224  postponed   74      -13997.144          -      -  18.7  310s
 750967  6235  postponed   80      -13997.144          -      -  18.7  315s
 763430  6135  postponed   77      -13997.144          -      -  18.7  320s
 775098  6251  postponed   77      -13997.144          -      -  18.7  325s
 788250  6557  postponed   74      -13997.144          -      -  18.6  330s
 800325  6753  postponed   69      -13997.144          -      -  18.6  335s
 811591  6956 infeasible   79      -13997.144          -      -  18.6  340s
 823634  7101 infeasible   77      -13997.144          -      -  18.6  345s
 834209  7243  postponed   80      -13997.144          -      -  18.6  350s
 845601  7274  postponed   76      -13997.144          -      -  18.6  355s
 857140  7303 infeasible   79      -13997.144          -      -  18.6  360s
 868952  7248 infeasible   81      -13997.144          -      -  18.7  365s
 881032  7160  postponed   74      -13997.144          -      -  18.7  370s
 892125  7142  postponed   76      -13997.144          -      -  18.7  375s
 903014  7072 infeasible   79      -13997.144          -      -  18.7  380s
 913986  7028  postponed   80      -13997.144          -      -  18.7  385s
 926320  6963  postponed   75      -13997.144          -      -  18.7  390s
 938689  6934  postponed   74      -13997.144          -      -  18.8  395s
 950757  6849 infeasible   79      -13997.144          -      -  18.8  400s
 961642  6801  postponed   78      -13997.144          -      -  18.8  405s
 972469  6820  postponed   72      -13997.144          -      -  18.8  410s
 985592  6875  postponed   78      -13997.144          -      -  18.8  415s
 997714  6827  postponed   69      -13997.144          -      -  18.8  420s
 1009520  6775  postponed   75      -13997.144          -      -  18.9  425s
 1020655  6823  postponed   63      -13997.144          -      -  18.9  430s
 1033504  6851 infeasible   79      -13997.144          -      -  18.9  435s
 1045892  6910  postponed   73      -13997.144          -      -  18.9  440s
 1057232  6855  postponed   77      -13997.144          -      -  18.9  445s
 1069304  6805  postponed   74      -13997.144          -      -  18.9  450s
 1083696  6757  postponed   74      -13997.144          -      -  18.9  455s
 1095384  6807 infeasible   79      -13997.144          -      -  18.9  460s
 1106493  6706 infeasible   78      -13997.144          -      -  18.9  465s
 1118508  6657  postponed   76      -13997.144          -      -  18.9  470s
 1131486  6659 infeasible   79      -13997.144          -      -  18.8  475s
 1143710  6577  postponed   77      -13997.144          -      -  18.8  480s
 1155387  6694  postponed   76      -13997.144          -      -  18.8  485s
 1168595  6643 infeasible   79      -13997.144          -      -  18.8  490s
 1182148  6642  postponed   77      -13997.144          -      -  18.8  495s
 1194582  6741  postponed   76      -13997.144          -      -  18.8  500s
 1208576  6842 infeasible   76      -13997.144          -      -  18.8  505s
 1220722  6768 infeasible   78      -13997.144          -      -  18.8  510s
 1231665  6685  postponed   72      -13997.144          -      -  18.8  515s
 1243319  6791  postponed   75      -13997.144          -      -  18.8  520s
 1253642  6762 infeasible   78      -13997.144          -      -  18.8  525s
 1265544  6713  postponed   74      -13997.144          -      -  18.8  530s
 1276436  6640 infeasible   77      -13997.144          -      -  18.8  535s
 1288386  6616  postponed   73      -13997.144          -      -  18.9  540s
 1300345  6671 infeasible   72      -13997.144          -      -  18.9  545s
 1314853  6643  postponed   76      -13997.144          -      -  18.9  550s
 1325861  6635  postponed   75      -13997.144          -      -  18.9  555s
 1338419  6633 infeasible   79      -13997.144          -      -  18.9  560s
 1350998  6540 infeasible   79      -13997.144          -      -  18.9  565s
 1361799  6670 infeasible   79      -13997.144          -      -  18.9  570s
 1373983  6804  postponed   71      -13997.144          -      -  18.9  575s
 1386081  6757 infeasible   79      -13997.144          -      -  18.9  580s
 1397058  6716  postponed   77      -13997.144          -      -  18.9  585s
 1407803  6656 infeasible   78      -13997.144          -      -  18.9  590s
 1419860  6654  postponed   76      -13997.144          -      -  18.9  595s
 1434141  6595 infeasible   81      -13997.144          -      -  18.9  600s

Explored 1435069 nodes (27173315 simplex iterations) in 600.02 seconds (121.41 work units)
Thread count was 8 (of 8 available processors)

Solution count 1: -13997.1 

Time limit reached
Best objective 3.143512933934e+05, best bound -, gap -

User-callback calls 2872911, time in user-callback 28.27 sec
